NAME : B-n25-k9
CAPACITY : 1112
NODE_COORD_SECTION
1   198   334
2   51   277
3   99   445
4   338   144
5   133   296
6   365   331
7   149   482
8   404   100
9   101   295
10   133   133
11   126   148
12   362   223
13   260   236
14   460   193
15   423   469
16   453   337
17   69   95
18   238   105
19   347   258
20   114   328
21   248   156
22   248   186
23   293   366
24   244   466
25   349   184
DEMAND_SECTION
1   0
2   10
3   78
4   22
5   35
6   93
7   17
8   10
9   6
10   45
11   12
12   40
13   48
14   89
15   55
16   17
17   84
18   98
19   93
20   60
21   82
22   50
23   57
24   34
25   17
DEPOT_SECTION
    1
    -1
EOF